Version identifier: 22.1.1.0 | 2022-11-28 | 9160aff4d
CPXPARAM_TimeLimit                               3600
Tried aggregator 1 time.
MIP Presolve eliminated 203 rows and 154 columns.
Reduced MIP has 5397 rows, 2457 columns, and 16091 nonzeros.
Reduced MIP has 2457 binaries, 0 generals, 0 SOSs, and 0 indicators.
Presolve time = 0.01 sec. (12.41 ticks)
Found incumbent of value 4252173.000000 after 0.01 sec. (15.08 ticks)
Probing time = 0.00 sec. (3.50 ticks)
Tried aggregator 1 time.
Detecting symmetries...
Reduced MIP has 5397 rows, 2457 columns, and 16091 nonzeros.
Reduced MIP has 2457 binaries, 0 generals, 0 SOSs, and 0 indicators.
Presolve time = 0.01 sec. (13.67 ticks)
Probing time = 0.01 sec. (3.50 ticks)
Clique table members: 2347.
MIP emphasis: balance optimality and feasibility.
MIP search method: dynamic search.
Parallel mode: deterministic, using up to 8 threads.
Root relaxation solution time = 0.01 sec. (10.34 ticks)

        Nodes                                         Cuts/
   Node  Left     Objective  IInf  Best Integer    Best Bound    ItCnt     Gap

*     0+    0                      4252173.0000        0.0000           100.00%
*     0+    0                      1897296.0000        0.0000           100.00%
*     0+    0                       782503.0000        0.0000           100.00%
*     0+    0                       448667.0000        0.0000           100.00%
*     0+    0                       233162.0000        0.0000           100.00%
      0     0    93774.0000   100   233162.0000    93774.0000      159   59.78%
*     0+    0                       179553.0000    93774.0000            47.77%
      0     0   106217.5000   100   179553.0000     Cuts: 140      272   40.84%
*     0+    0                       138349.0000   106217.5000            23.22%
      0     0   118060.5000    88   138349.0000     Cuts: 143      398   14.66%
Detecting symmetries...

Repeating presolve.
Tried aggregator 1 time.
MIP Presolve eliminated 4734 rows and 1918 columns.
MIP Presolve modified 481 coefficients.
Reduced MIP has 663 rows, 539 columns, and 2294 nonzeros.
Reduced MIP has 539 binaries, 0 generals, 0 SOSs, and 0 indicators.
Presolve time = 0.00 sec. (4.56 ticks)
Probing time = 0.00 sec. (0.51 ticks)
Tried aggregator 1 time.
Detecting symmetries...
MIP Presolve eliminated 1 rows and 0 columns.
Reduced MIP has 662 rows, 539 columns, and 2292 nonzeros.
Reduced MIP has 539 binaries, 0 generals, 0 SOSs, and 0 indicators.
Presolve time = 0.00 sec. (2.51 ticks)
Represolve time = 0.01 sec. (12.31 ticks)
Probing time = 0.00 sec. (0.51 ticks)
Clique table members: 604.
MIP emphasis: balance optimality and feasibility.
MIP search method: dynamic search.
Parallel mode: deterministic, using up to 8 threads.
Root relaxation solution time = 0.00 sec. (4.15 ticks)

        Nodes                                         Cuts/
   Node  Left     Objective  IInf  Best Integer    Best Bound    ItCnt     Gap

*     0+    0                       138349.0000   118060.5000            14.66%
      0     0   128382.5000    86   138349.0000   128382.5000      599    7.20%
      0     0   130544.0833   131   138349.0000      Cuts: 12      666    5.64%
      0     0   131632.0000   127   138349.0000      Cuts: 46      723    4.86%
      0     0        cutoff         138349.0000   138349.0000      723    0.00%
Elapsed time = 0.22 sec. (171.49 ticks, tree = 0.01 MB, solutions = 7)

Implied bound cuts applied:  126
Zero-half cuts applied:  7
Gomory fractional cuts applied:  3

Root node processing (before b&c):
  Real time             =    0.22 sec. (171.68 ticks)
Parallel b&c, 8 threads:
  Real time             =    0.00 sec. (0.00 ticks)
  Sync time (average)   =    0.00 sec.
  Wait time (average)   =    0.00 sec.
                          ------------
Total (root+branch&cut) =    0.22 sec. (171.68 ticks)
Status: Optimal
Obj: 138349

Instalacoes abertas:
Instalação 4 aberta
Instalação 9 aberta
Instalação 20 aberta
Instalação 22 aberta

Atribuições (cliente -> instalação):
Cliente 0 -> Instalação 9
Cliente 1 -> Instalação 9
Cliente 2 -> Instalação 20
Cliente 3 -> Instalação 9
Cliente 4 -> Instalação 9
Cliente 5 -> Instalação 4
Cliente 6 -> Instalação 4
Cliente 7 -> Instalação 20
Cliente 8 -> Instalação 4
Cliente 9 -> Instalação 9
Cliente 10 -> Instalação 20
Cliente 11 -> Instalação 20
Cliente 12 -> Instalação 20
Cliente 13 -> Instalação 20
Cliente 14 -> Instalação 9
Cliente 15 -> Instalação 9
Cliente 16 -> Instalação 4
Cliente 17 -> Instalação 20
Cliente 18 -> Instalação 20
Cliente 19 -> Instalação 4
Cliente 20 -> Instalação 20
Cliente 21 -> Instalação 9
Cliente 22 -> Instalação 22
Cliente 23 -> Instalação 9
Cliente 24 -> Instalação 20
Cliente 25 -> Instalação 20
Cliente 26 -> Instalação 4
Cliente 27 -> Instalação 20
Cliente 28 -> Instalação 20
Cliente 29 -> Instalação 9
Cliente 30 -> Instalação 9
Cliente 31 -> Instalação 9
Cliente 32 -> Instalação 9
Cliente 33 -> Instalação 20
Cliente 34 -> Instalação 9
Cliente 35 -> Instalação 20
Cliente 36 -> Instalação 9
Cliente 37 -> Instalação 20
Cliente 38 -> Instalação 4
Cliente 39 -> Instalação 20
Cliente 40 -> Instalação 20
Cliente 41 -> Instalação 20
Cliente 42 -> Instalação 9
Cliente 43 -> Instalação 9
Cliente 44 -> Instalação 9
Cliente 45 -> Instalação 4
Cliente 46 -> Instalação 4
Cliente 47 -> Instalação 4
Cliente 48 -> Instalação 9
Cliente 49 -> Instalação 20
